c uprop, v00.0, 
c reading from data/prog39.c.cnf
c done reading: 0.002684
p cnf 137 516
-47 -63 0
47 63 0
-42 63 0
42 -63 0
47 -57 0
-56 -57 0
-47 56 57 0
-47 -52 56 0
47 -52 -56 0
47 52 56 0
-47 52 -56 0
-48 57 0
-45 -48 0
45 48 -57 0
-44 45 -57 0
-44 -45 57 0
44 45 57 0
44 -45 -57 0
-43 48 0
-41 -43 0
41 43 -48 0
-38 41 -48 0
-38 -41 48 0
38 41 48 0
38 -41 -48 0
43 -60 0
-59 -60 0
-43 59 60 0
-43 59 -64 0
43 -59 -64 0
43 59 64 0
-43 -59 64 0
60 -66 0
-54 -66 0
54 -60 66 0
54 -60 -68 0
-54 60 -68 0
54 60 68 0
-54 -60 68 0
66 -70 0
-50 -70 0
50 -66 70 0
50 -66 -72 0
-50 66 -72 0
50 66 72 0
-50 -66 72 0
56 -74 0
-56 74 0
-45 -63 76 0
45 63 -76 0
45 -76 0
63 -76 0
45 -76 -78 0
63 -76 -78 0
-76 -78 0
-45 76 78 0
-63 76 78 0
45 63 -78 0
-41 -56 80 0
-41 -76 80 0
-56 -76 80 0
41 56 -80 0
41 76 -80 0
56 76 -80 0
41 -80 -82 0
56 -80 -82 0
76 -80 -82 0
-41 80 82 0
-56 80 82 0
-76 80 82 0
-41 -56 -76 82 0
41 56 76 -82 0
-45 -59 84 0
-59 -80 84 0
-45 -80 84 0
45 59 -84 0
59 80 -84 0
45 80 -84 0
59 -84 -86 0
45 -84 -86 0
80 -84 -86 0
-59 84 86 0
-45 84 86 0
-80 84 86 0
-45 -59 -80 86 0
45 59 80 -86 0
-41 -54 88 0
-54 -84 88 0
-41 -84 88 0
41 54 -88 0
54 84 -88 0
41 84 -88 0
-36 54 -88 0
-36 41 -88 0
-36 84 -88 0
36 -54 88 0
36 -41 88 0
36 -84 88 0
36 -41 -54 -84 0
-36 41 54 84 0
34 -50 -59 0
34 -50 -88 0
34 -59 -88 0
-34 50 59 0
-34 50 88 0
-34 59 88 0
-32 -34 50 0
-32 -34 59 0
-32 -34 88 0
32 34 -50 0
32 34 -59 0
32 34 -88 0
32 -50 -59 -88 0
-32 50 59 88 0
-30 54 0
-30 34 0
30 -34 -54 0
-29 -34 -54 0
-29 34 54 0
29 34 -54 0
29 -34 54 0
50 -62 0
30 -62 0
-30 -50 62 0
-30 -50 -55 0
30 50 -55 0
30 -50 55 0
-30 50 55 0
-40 86 0
40 -86 0
-36 58 -63 0
36 -58 63 0
36 -58 0
-58 63 0
36 -53 -58 0
-53 -58 63 0
-53 -58 0
-36 53 58 0
53 58 -63 0
36 -53 63 0
-32 49 -56 0
-32 49 -58 0
49 -56 -58 0
32 -49 56 0
32 -49 58 0
-49 56 58 0
-28 32 -49 0
-28 -49 56 0
-28 -49 58 0
28 -32 49 0
28 49 -56 0
28 49 -58 0
28 -32 -56 -58 0
-28 32 56 58 0
27 -29 -45 0
27 -29 -49 0
27 -45 -49 0
-27 29 45 0
-27 29 49 0
-27 45 49 0
27 -29 0
27 -45 0
27 -49 0
-29 -45 -49 0
26 -41 -55 0
26 -27 -55 0
26 -27 -41 0
-26 41 55 0
-26 27 55 0
-26 27 41 0
26 -55 0
26 -41 0
26 -27 0
-27 -41 -55 0
25 -59 -62 0
25 -26 -62 0
25 -26 -59 0
-25 59 62 0
-25 26 62 0
-25 26 59 0
25 -62 0
25 -59 0
25 -26 0
-26 -59 -62 0
-24 54 0
-24 25 0
24 -25 -54 0
25 -54 0
-25 54 0
-24 -50 0
24 -50 0
-24 50 0
-23 -63 0
23 63 0
-22 63 0
22 -63 0
-21 23 0
-21 -74 0
21 -23 74 0
-20 -23 74 0
-20 23 -74 0
20 23 74 0
20 -23 -74 0
-19 21 0
-19 -78 0
19 -21 78 0
-18 -21 78 0
-18 21 -78 0
18 21 78 0
18 -21 -78 0
-17 19 0
-17 -82 0
17 -19 82 0
-16 -19 82 0
-16 19 -82 0
16 19 82 0
16 -19 -82 0
-15 17 0
-15 -40 0
15 -17 40 0
-14 -17 40 0
-14 17 -40 0
14 17 40 0
14 -17 -40 0
-13 15 0
-13 -53 0
13 -15 53 0
-12 -15 53 0
-12 15 -53 0
12 15 53 0
12 -15 -53 0
-11 13 0
-11 -28 0
11 -13 28 0
-13 28 -46 0
13 -28 -46 0
13 28 46 0
-13 -28 46 0
11 -90 0
-11 90 0
-11 -91 0
11 91 0
90 -92 0
-90 92 0
-90 -93 0
90 93 0
92 -94 0
-92 94 0
-92 -95 0
92 95 0
94 -96 0
-94 96 0
-94 -97 0
94 97 0
96 -98 0
-96 98 0
-96 -99 0
96 99 0
98 -100 0
-98 100 0
-98 -101 0
98 101 0
-102 -104 0
-104 -105 0
102 104 105 0
102 105 -107 0
-102 -105 -107 0
-102 105 107 0
102 -105 107 0
104 -108 0
-108 -109 0
-104 108 109 0
-104 109 -111 0
104 -109 -111 0
104 109 111 0
-104 -109 111 0
108 -112 0
-108 112 0
-108 -113 0
108 113 0
112 -114 0
-112 114 0
-112 -115 0
112 115 0
114 -116 0
-114 116 0
-114 -117 0
114 117 0
116 -118 0
-116 118 0
-116 -119 0
116 119 0
118 -120 0
-118 120 0
-118 -121 0
118 121 0
109 -122 0
102 -122 0
-102 -109 122 0
-102 -109 -123 0
102 109 -123 0
102 -109 123 0
-102 109 123 0
-105 -122 124 0
105 -124 0
122 -124 0
105 122 -124 0
-124 -125 0
105 -124 -125 0
122 -124 -125 0
-105 124 125 0
-122 124 125 0
105 122 -125 0
-109 -124 126 0
109 -126 0
124 -126 0
109 124 -126 0
-126 -127 0
109 -126 -127 0
124 -126 -127 0
-109 126 127 0
-124 126 127 0
109 124 -127 0
-126 128 0
126 -128 0
-51 125 0
-51 102 0
51 -102 -125 0
-102 -103 -125 0
102 -103 125 0
102 103 -125 0
-102 103 125 0
-105 106 -127 0
-51 106 -127 0
-51 -105 106 0
105 -106 127 0
51 -106 127 0
51 105 -106 0
-106 -110 127 0
105 -106 -110 0
51 -106 -110 0
106 110 -127 0
-105 106 110 0
-51 106 110 0
-51 -105 110 -127 0
51 105 -110 127 0
-109 -128 129 0
-106 -128 129 0
-106 -109 129 0
109 128 -129 0
106 128 -129 0
106 109 -129 0
128 -129 -130 0
109 -129 -130 0
106 -129 -130 0
-128 129 130 0
-109 129 130 0
-106 129 130 0
-106 -109 -128 130 0
106 109 128 -130 0
-129 131 0
129 -131 0
110 -132 0
102 -132 0
-102 -110 132 0
-102 -110 -133 0
102 110 -133 0
102 -110 133 0
-102 110 133 0
-105 -130 134 0
-130 -132 134 0
-105 -132 134 0
105 130 -134 0
130 132 -134 0
105 132 -134 0
130 -134 -135 0
105 -134 -135 0
132 -134 -135 0
-130 134 135 0
-105 134 135 0
-132 134 135 0
-105 -130 -132 135 0
105 130 132 -135 0
-109 -131 0
-131 -134 0
-109 -134 0
-131 136 0
-109 136 0
-134 136 0
-109 -131 -134 136 0
109 131 134 -136 0
-39 -102 0
-39 -105 0
39 102 105 0
-61 102 105 0
-61 -102 -105 0
61 -102 105 0
61 102 -105 0
39 -65 0
-65 -123 0
-39 65 123 0
-39 -67 123 0
39 -67 -123 0
39 67 123 0
-39 67 -123 0
65 -69 0
-69 -103 0
-65 69 103 0
-65 -71 103 0
65 -71 -103 0
65 71 103 0
-65 71 -103 0
69 -73 0
-73 -133 0
-69 73 133 0
-69 133 -137 0
69 -133 -137 0
69 133 137 0
-69 -133 137 0
73 -75 0
-75 -135 0
-73 75 135 0
-73 -77 135 0
73 -77 -135 0
73 77 135 0
-73 77 -135 0
75 -79 0
-79 -136 0
-75 79 136 0
-75 -81 136 0
75 -81 -136 0
75 81 136 0
-75 81 -136 0
79 -83 0
-79 83 0
-79 -85 0
79 85 0
83 -87 0
-83 87 0
-83 -89 0
83 89 0
-37 87 0
37 -87 0
-35 -87 0
35 87 0
-33 37 0
33 -37 0
-31 -37 0
31 37 0
-10 33 0
10 -33 0
-9 -33 0
9 33 0
-8 10 0
8 -10 0
-7 -10 0
7 10 0
-6 63 0
-6 102 0
6 -63 -102 0
-63 -102 0
63 102 0
5 -74 -105 0
5 -6 -74 0
5 -6 -105 0
-5 74 105 0
-5 6 74 0
-5 6 105 0
-5 74 0
-5 105 0
-5 6 0
6 74 105 0
4 -78 -123 0
4 -5 -78 0
4 -5 -123 0
-4 78 123 0
-4 5 78 0
-4 5 123 0
-4 78 0
-4 123 0
-4 5 0
5 78 123 0
3 -82 -103 0
3 -4 -82 0
3 -4 -103 0
-3 82 103 0
-3 4 82 0
-3 4 103 0
-3 82 0
-3 103 0
-3 4 0
4 82 103 0
2 -40 -133 0
2 -3 -40 0
2 -3 -133 0
-2 40 133 0
-2 3 40 0
-2 3 133 0
2 -40 0
2 -133 0
2 -3 0
-3 -40 -133 0
1 -53 -135 0
1 -2 -53 0
1 -2 -135 0
-1 53 135 0
-1 2 53 0
-1 2 135 0
-1 53 0
-1 135 0
-1 2 0
2 53 135 0
-28 -136 0
-1 -28 0
-1 -136 0
1 28 136 0
